Distance All: 409.575
Capacity Violation: 0
Time Violation: 0
Route Used Num: 3
Visited Customer Num: 25

Route 0 : 
Total Distance: 0	Total Demand: 0	Time Violation: 0	Customer Number: 0	Nodes: 0 0 
Route 1 : 
Total Distance: 0	Total Demand: 0	Time Violation: 0	Customer Number: 0	Nodes: 0 0 
Route 2 : 
Total Distance: 163.978	Total Demand: 167	Time Violation: 0	Customer Number: 10	Nodes: 0 5 16 14 15 2 23 22 21 12 1 0 
Route 3 : 
Total Distance: 168.454	Total Demand: 139	Time Violation: 0	Customer Number: 11	Nodes: 0 7 19 11 10 20 9 3 24 25 4 13 0 
Route 4 : 
Total Distance: 77.1432	Total Demand: 26	Time Violation: 0	Customer Number: 4	Nodes: 0 6 18 8 17 0 
Route 5 : 
Total Distance: 0	Total Demand: 0	Time Violation: 0	Customer Number: 0	Nodes: 0 0 
Route 6 : 
Total Distance: 0	Total Demand: 0	Time Violation: 0	Customer Number: 0	Nodes: 0 0 
Route 7 : 
Total Distance: 0	Total Demand: 0	Time Violation: 0	Customer Number: 0	Nodes: 0 0 
Route 8 : 
Total Distance: 0	Total Demand: 0	Time Violation: 0	Customer Number: 0	Nodes: 0 0 
Route 9 : 
Total Distance: 0	Total Demand: 0	Time Violation: 0	Customer Number: 0	Nodes: 0 0 
Route 10 : 
Total Distance: 0	Total Demand: 0	Time Violation: 0	Customer Number: 0	Nodes: 0 0 
Route 11 : 
Total Distance: 0	Total Demand: 0	Time Violation: 0	Customer Number: 0	Nodes: 0 0 
Route 12 : 
Total Distance: 0	Total Demand: 0	Time Violation: 0	Customer Number: 0	Nodes: 0 0 
Route 13 : 
Total Distance: 0	Total Demand: 0	Time Violation: 0	Customer Number: 0	Nodes: 0 0 
Route 14 : 
Total Distance: 0	Total Demand: 0	Time Violation: 0	Customer Number: 0	Nodes: 0 0 
Route 15 : 
Total Distance: 0	Total Demand: 0	Time Violation: 0	Customer Number: 0	Nodes: 0 0 
Route 16 : 
Total Distance: 0	Total Demand: 0	Time Violation: 0	Customer Number: 0	Nodes: 0 0 
Route 17 : 
Total Distance: 0	Total Demand: 0	Time Violation: 0	Customer Number: 0	Nodes: 0 0 
Route 18 : 
Total Distance: 0	Total Demand: 0	Time Violation: 0	Customer Number: 0	Nodes: 0 0 
Route 19 : 
Total Distance: 0	Total Demand: 0	Time Violation: 0	Customer Number: 0	Nodes: 0 0 
Route 20 : 
Total Distance: 0	Total Demand: 0	Time Violation: 0	Customer Number: 0	Nodes: 0 0 
Route 21 : 
Total Distance: 0	Total Demand: 0	Time Violation: 0	Customer Number: 0	Nodes: 0 0 
Route 22 : 
Total Distance: 0	Total Demand: 0	Time Violation: 0	Customer Number: 0	Nodes: 0 0 
Route 23 : 
Total Distance: 0	Total Demand: 0	Time Violation: 0	Customer Number: 0	Nodes: 0 0 
Route 24 : 
Total Distance: 0	Total Demand: 0	Time Violation: 0	Customer Number: 0	Nodes: 0 0 
================================================================================= 
Execution Time: 11.18 s 
